SPARKNaCl/why3-z3/sparknacl-core.adb_408_20_range_check_1.smt2
;; produced by z3_gnatprove.drv ;;
(set-info :smt-lib-version 2.5)
(set-info :source |VC generated by SPARK 2014|)
(set-info :category industrial)
(set-info :status unknown)
;;; generated by SMT-LIB2 driver
;;; SMT-LIB2 driver: bit-vectors, common part
;;; SMT-LIB2: integer arithmetic
(declare-datatypes ()
  ((int__ref (int__refqtmk (int__content Int)))))

;; "length"
(define-fun length ((x Int) (y Int)) Int
  (ite (<= x y) (+ (- y x) 1) 0))

(declare-datatypes ()
  ((t__ref (t__refqtmk (t__content (_ BitVec 32))))))

(declare-sort u32 0)

;; "to_rep"
(declare-fun to_rep (u32) (_ BitVec 32))

;; "of_rep"
(declare-fun of_rep ((_ BitVec 32)) u32)

;; "inversion_axiom"
(assert
  (forall ((x u32)) (! (= (of_rep (to_rep x)) x) :pattern ((to_rep x)) )))

;; "range_axiom"
(assert true)

;; "coerce_axiom"
(assert
  (forall ((x (_ BitVec 32)))
    (! (= (to_rep (of_rep x)) x) :pattern ((to_rep (of_rep x))) )))

(declare-sort map1 0)

;; "has_bounds"
(declare-fun has_bounds (map1
  Int
  Int) Bool)

(declare-datatypes ()
  ((us_split_fields
   (us_split_fieldsqtmk
   (rec__ada___sparknacl__core__chacha20_context__f map1)))))

(declare-datatypes ()
  ((us_rep (us_repqtmk (us_split_fields1 us_split_fields)))))

;; "dynamic_invariant"
(define-fun dynamic_invariant ((temp___expr_371 us_rep) (temp___is_init_367 Bool) (temp___skip_constant_368 Bool) (temp___do_toplevel_369 Bool) (temp___do_typ_inv_370 Bool)) Bool
  (has_bounds
    (rec__ada___sparknacl__core__chacha20_context__f
      (us_split_fields1 temp___expr_371))
    0
    15))

(declare-const context us_rep)

(declare-sort byte 0)

(declare-sort map2 0)

(declare-datatypes ()
  ((map__ref (map__refqtmk (map__content map2)))))

;; "has_bounds"
(declare-fun has_bounds1 (map2
  Int
  Int) Bool)

(declare-sort tinteger_32B 0)

;; "tinteger_32B'int"
(declare-fun tinteger_32Bqtint (tinteger_32B) Int)

;; "tinteger_32B'axiom"
(assert
  (forall ((i tinteger_32B))
    (and
      (<= (- 2147483648) (tinteger_32Bqtint i))
      (<= (tinteger_32Bqtint i) 2147483647))))

;; "in_range"
(define-fun in_range ((x Int)) Bool
  (and (<= (- 2147483648) x) (<= x 2147483647)))

(declare-const c__first tinteger_32B)

(declare-const c__last tinteger_32B)

;; "to_rep"
(define-fun to_rep1 ((x tinteger_32B)) Int
  (tinteger_32Bqtint x))

;; "of_rep"
(declare-fun of_rep1 (Int) tinteger_32B)

;; "inversion_axiom"
(assert
  (forall ((x tinteger_32B))
    (! (= (of_rep1 (to_rep1 x)) x) :pattern ((to_rep1 x)) )))

;; "range_axiom"
(assert
  (forall ((x tinteger_32B))
    (! (in_range (to_rep1 x)) :pattern ((to_rep1 x)) )))

;; "coerce_axiom"
(assert
  (forall ((x Int))
    (! (=> (in_range x) (= (to_rep1 (of_rep1 x)) x)) :pattern ((to_rep1
                                                                 (of_rep1 x))) )))

;; "in_range"
(define-fun in_range1 ((x Int)) Bool
  (and (<= 0 x) (<= x 2147483647)))

;; "to_rep"
(declare-fun to_rep2 (byte) (_ BitVec 8))

;; "of_rep"
(declare-fun of_rep2 ((_ BitVec 8)) byte)

;; "inversion_axiom"
(assert
  (forall ((x byte)) (! (= (of_rep2 (to_rep2 x)) x) :pattern ((to_rep2 x)) )))

;; "range_axiom"
(assert true)

;; "coerce_axiom"
(assert
  (forall ((x (_ BitVec 8)))
    (! (= (to_rep2 (of_rep2 x)) x) :pattern ((to_rep2 (of_rep2 x))) )))

(declare-sort map3 0)

(declare-datatypes ()
  ((map__ref1 (map__refqtmk1 (map__content1 map3)))))

;; "has_bounds"
(declare-fun has_bounds2 (map3
  Int
  Int) Bool)

;; "get"
(declare-fun get (map3
  Int) byte)

(declare-datatypes ()
  ((t (tqtmk (rec__first tinteger_32B)(rec__last tinteger_32B)))))

;; "dynamic_property"
(define-fun dynamic_property ((range_first Int) (range_last Int) (low Int) (high Int)) Bool
  (and
    (in_range low)
    (and
      (in_range high)
      (=> (<= low high) (and (in_range1 low) (in_range1 high))))))

(declare-datatypes ()
  ((us_t (us_tqtmk (elts map3)(rt t)))))

;; "first"
(define-fun first ((a us_t)) Int
  (to_rep1 (rec__first (rt a))))

;; "last"
(define-fun last ((a us_t)) Int
  (to_rep1 (rec__last (rt a))))

;; "length"
(define-fun length1 ((a us_t)) Int
  (ite (<= (first a) (last a)) (+ (- (last a) (first a)) 1) 0))

;; "well_formed"
(define-fun well_formed ((a us_t)) Bool
  (has_bounds2
    (elts a)
    (to_rep1 (rec__first (rt a)))
    (to_rep1 (rec__last (rt a)))))

(declare-const m us_t)

(declare-const xor_m Bool)

(declare-datatypes ()
  ((t1 (tqtmk1 (rec__first1 tinteger_32B)(rec__last1 tinteger_32B)))))

;; "mk"
(declare-fun mk (Int
  Int) t1)

;; "mk_def"
(assert
  (forall ((f Int) (l Int))
    (! (=>
         (in_range f)
         (=>
           (in_range l)
           (and
             (= (to_rep1 (rec__first1 (mk f l))) f)
             (= (to_rep1 (rec__last1 (mk f l))) l)))) :pattern ((mk f l)) )))

(declare-datatypes ()
  ((us_t1 (us_tqtmk1 (elts1 map2)(rt1 t1)))))

;; "of_array"
(define-fun of_array ((a map2) (f Int) (l Int)) us_t1
  (us_tqtmk1 a (mk f l)))

;; "well_formed"
(define-fun well_formed1 ((a us_t1)) Bool
  (has_bounds1
    (elts1 a)
    (to_rep1 (rec__first1 (rt1 a)))
    (to_rep1 (rec__last1 (rt1 a)))))

;; "dynamic_invariant"
(define-fun dynamic_invariant1 ((temp___expr_255 us_t) (temp___is_init_251 Bool) (temp___skip_constant_252 Bool) (temp___do_toplevel_253 Bool) (temp___do_typ_inv_254 Bool)) Bool
  (and
    (=>
      (not (= temp___skip_constant_252 true))
      (dynamic_property
        0
        2147483647
        (first temp___expr_255)
        (last temp___expr_255)))
    (well_formed temp___expr_255)))

;; "ada___sparknacl__core__chacha20_encrypt_bytes__tmp__aggregate_def"
(declare-fun ada___sparknacl__core__chacha20_encrypt_bytes__tmp__aggregate_def ((_ BitVec 8)) map3)

(declare-const c map2)

(declare-const x0 (_ BitVec 32))

(declare-const x1 (_ BitVec 32))

(declare-const x2 (_ BitVec 32))

(declare-const x3 (_ BitVec 32))

(declare-const x4 (_ BitVec 32))

(declare-const x5 (_ BitVec 32))

(declare-const x6 (_ BitVec 32))

(declare-const x7 (_ BitVec 32))

(declare-const x8 (_ BitVec 32))

(declare-const x9 (_ BitVec 32))

(declare-const x10 (_ BitVec 32))

(declare-const x11 (_ BitVec 32))

(declare-const x12 (_ BitVec 32))

(declare-const x13 (_ BitVec 32))

(declare-const x14 (_ BitVec 32))

(declare-const x15 (_ BitVec 32))

(declare-const j0 (_ BitVec 32))

(declare-const j1 (_ BitVec 32))

(declare-const j2 (_ BitVec 32))

(declare-const j3 (_ BitVec 32))

(declare-const j4 (_ BitVec 32))

(declare-const j5 (_ BitVec 32))

(declare-const j6 (_ BitVec 32))

(declare-const j7 (_ BitVec 32))

(declare-const j8 (_ BitVec 32))

(declare-const j9 (_ BitVec 32))

(declare-const j10 (_ BitVec 32))

(declare-const j11 (_ BitVec 32))

(declare-const j12 (_ BitVec 32))

(declare-const j13 (_ BitVec 32))

(declare-const j14 (_ BitVec 32))

(declare-const j15 (_ BitVec 32))

;; "j15'unused"
(define-fun j15qtunused () t__ref
  (t__refqtmk j15))

;; "j14'unused"
(define-fun j14qtunused () t__ref
  (t__refqtmk j14))

;; "j13'unused"
(define-fun j13qtunused () t__ref
  (t__refqtmk j13))

;; "j12'unused"
(define-fun j12qtunused () t__ref
  (t__refqtmk j12))

;; "j11'unused"
(define-fun j11qtunused () t__ref
  (t__refqtmk j11))

;; "j10'unused"
(define-fun j10qtunused () t__ref
  (t__refqtmk j10))

;; "j9'unused"
(define-fun j9qtunused () t__ref
  (t__refqtmk j9))

;; "j8'unused"
(define-fun j8qtunused () t__ref
  (t__refqtmk j8))

;; "j7'unused"
(define-fun j7qtunused () t__ref
  (t__refqtmk j7))

;; "j6'unused"
(define-fun j6qtunused () t__ref
  (t__refqtmk j6))

;; "j5'unused"
(define-fun j5qtunused () t__ref
  (t__refqtmk j5))

;; "j4'unused"
(define-fun j4qtunused () t__ref
  (t__refqtmk j4))

;; "j3'unused"
(define-fun j3qtunused () t__ref
  (t__refqtmk j3))

;; "j2'unused"
(define-fun j2qtunused () t__ref
  (t__refqtmk j2))

;; "j1'unused"
(define-fun j1qtunused () t__ref
  (t__refqtmk j1))

;; "j0'unused"
(define-fun j0qtunused () t__ref
  (t__refqtmk j0))

;; "x15'unused"
(define-fun x15qtunused () t__ref
  (t__refqtmk x15))

;; "x14'unused"
(define-fun x14qtunused () t__ref
  (t__refqtmk x14))

;; "x13'unused"
(define-fun x13qtunused () t__ref
  (t__refqtmk x13))

;; "x12'unused"
(define-fun x12qtunused () t__ref
  (t__refqtmk x12))

;; "x11'unused"
(define-fun x11qtunused () t__ref
  (t__refqtmk x11))

;; "x10'unused"
(define-fun x10qtunused () t__ref
  (t__refqtmk x10))

;; "x9'unused"
(define-fun x9qtunused () t__ref
  (t__refqtmk x9))

;; "x8'unused"
(define-fun x8qtunused () t__ref
  (t__refqtmk x8))

;; "x7'unused"
(define-fun x7qtunused () t__ref
  (t__refqtmk x7))

;; "x6'unused"
(define-fun x6qtunused () t__ref
  (t__refqtmk x6))

;; "x5'unused"
(define-fun x5qtunused () t__ref
  (t__refqtmk x5))

;; "x4'unused"
(define-fun x4qtunused () t__ref
  (t__refqtmk x4))

;; "x3'unused"
(define-fun x3qtunused () t__ref
  (t__refqtmk x3))

;; "x2'unused"
(define-fun x2qtunused () t__ref
  (t__refqtmk x2))

;; "x1'unused"
(define-fun x1qtunused () t__ref
  (t__refqtmk x1))

;; "x0'unused"
(define-fun x0qtunused () t__ref
  (t__refqtmk x0))

;; "c'unused"
(define-fun cqtunused () map__ref
  (map__refqtmk c))

;; "Assume"
(assert (dynamic_invariant context true false true true))

;; "Assume"
(assert
  (and
    (dynamic_property 0 2147483647 (to_rep1 c__first) (to_rep1 c__last))
    (well_formed1 (of_array c (to_rep1 c__first) (to_rep1 c__last)))))

;; "Assume"
(assert (dynamic_invariant1 m true false true true))

;; "Assume"
(assert
  (and
    (and
      (and
        (and
          (and
            (and (= (to_rep1 c__first) 0) (= (first m) 0))
            (=>
              (= xor_m true)
              (= (length1 m) (length (to_rep1 c__first) (to_rep1 c__last)))))
          (=> (not (= xor_m true)) (= (length1 m) 64)))
        (< (to_rep1 c__last) 2147483647))
      (<= 0 (to_rep1 c__first)))
    (<= 0 (first m))))

;; "Assume"
(assert true)

;; "Assume"
(assert true)

;; "Assume"
(assert true)

;; "Assume"
(assert true)

;; "Assume"
(assert true)

;; "Assume"
(assert true)

;; "Assume"
(assert true)

;; "Assume"
(assert true)

;; "Assume"
(assert true)

;; "Assume"
(assert true)

;; "Assume"
(assert true)

;; "Assume"
(assert true)

;; "Assume"
(assert true)

;; "Assume"
(assert true)

;; "Assume"
(assert true)

;; "Assume"
(assert true)

;; "Assume"
(assert true)

;; "Assume"
(assert true)

;; "Assume"
(assert true)

;; "Assume"
(assert true)

;; "Assume"
(assert true)

;; "Assume"
(assert true)

;; "Assume"
(assert true)

;; "Assume"
(assert true)

;; "Assume"
(assert true)

;; "Assume"
(assert true)

;; "Assume"
(assert true)

;; "Assume"
(assert true)

;; "Assume"
(assert true)

;; "Assume"
(assert true)

;; "Assume"
(assert true)

;; "Assume"
(assert true)

;; "Assume"
(assert true)

;; "Assume"
(assert true)

;; "Assume"
(assert true)

;; "Assume"
(assert true)

;; "Assume"
(assert true)

;; "Assume"
(assert true)

;; "Assume"
(assert true)

;; "Assume"
(assert true)

;; "Assume"
(assert true)

;; "Assume"
(assert true)

;; "Assume"
(assert true)

;; "Assume"
(assert true)

;; "Assume"
(assert true)

;; "Assume"
(assert true)

;; "Assume"
(assert true)

;; "Assume"
(assert true)

;; "Assume"
(assert true)

;; "Assume"
(assert true)

;; "Assume"
(assert true)

;; "Assume"
(assert true)

;; "Assume"
(assert true)

;; "Assume"
(assert true)

;; "Assume"
(assert true)

;; "Assume"
(assert true)

;; "Assume"
(assert true)

;; "Assume"
(assert true)

;; "Assume"
(assert true)

;; "Assume"
(assert true)

;; "Assume"
(assert true)

;; "Assume"
(assert true)

;; "Assume"
(assert true)

;; "Assume"
(assert true)

(declare-const o Int)

;; "Ensures"
(assert (= (to_rep1 c__last) o))

;; "to_rep'result'unused"
(define-fun to_repqtresultqtunused () Int
  o)

(declare-const o1 Int)

;; "Ensures"
(assert (= (to_rep1 c__first) o1))

;; "to_rep'result'unused"
(define-fun to_repqtresultqtunused1 () Int
  o1)

;; "map__content'result'unused"
(define-fun map__contentqtresultqtunused () map2
  c)

;; "of_array'result'unused"
(define-fun of_arrayqtresultqtunused () us_t1
  (of_array c o1 o))

(declare-const o2 Int)

;; "Ensures"
(assert (= (to_rep1 c__last) o2))

;; "to_rep'result'unused"
(define-fun to_repqtresultqtunused2 () Int
  o2)

(declare-const o3 Int)

;; "Ensures"
(assert (= (to_rep1 c__first) o3))

;; "to_rep'result'unused"
(define-fun to_repqtresultqtunused3 () Int
  o3)

;; "o"
(define-fun o4 () Int
  (length o3 o2))

;; "length'result'unused"
(define-fun lengthqtresultqtunused () Int
  o4)

;; "Ensures"
(assert (in_range o4))

;; "range_check_'result'unused"
(define-fun range_check_qtresultqtunused () Int
  o4)

;; "Ensures"
(assert (in_range1 o4))

;; "range_check_'result'unused"
(define-fun range_check_qtresultqtunused1 () Int
  o4)

(declare-const b Int)

;; "b'unused"
(define-fun bqtunused () int__ref
  (int__refqtmk b))

;; "H"
(assert (= b o4))

;; "Assume"
(assert (in_range1 b))

(declare-const temp___1148 map3)

;; "H"
(assert (has_bounds2 temp___1148 0 63))

;; "H"
(assert
  (forall ((temp___1147 Int))
    (! (=>
         (and (<= 0 temp___1147) (<= temp___1147 63))
         (= (to_rep2 (get temp___1148 temp___1147)) #x00)) :pattern (
    (get
      temp___1148
      temp___1147)) )))

;; "H"
(assert
  (= temp___1148 (ada___sparknacl__core__chacha20_encrypt_bytes__tmp__aggregate_def
                   #x00)))

;; "ada___sparknacl__core__chacha20_encrypt_bytes__tmp__aggregate_def'result'unused"
(define-fun ada___sparknacl__core__chacha20_encrypt_bytes__tmp__aggregate_defqtresultqtunused 
  () map3
  temp___1148)

(declare-const tmp map3)

;; "tmp'unused"
(define-fun tmpqtunused () map__ref1
  (map__refqtmk1 tmp))

;; "H"
(assert (= tmp temp___1148))

;; "Assume"
(assert (has_bounds2 tmp 0 63))

(declare-const o5 Int)

;; "Ensures"
(assert (= (to_rep1 c__last) o5))

;; "to_rep'result'unused"
(define-fun to_repqtresultqtunused4 () Int
  o5)

(declare-const o6 Int)

;; "Ensures"
(assert (= (to_rep1 c__first) o6))

;; "to_rep'result'unused"
(define-fun to_repqtresultqtunused5 () Int
  o6)

;; "map__content'result'unused"
(define-fun map__contentqtresultqtunused1 () map2
  c)

;; "of_array'result'unused"
(define-fun of_arrayqtresultqtunused1 () us_t1
  (of_array c o6 o5))

(declare-const o7 Int)

;; "Ensures"
(assert (= (to_rep1 c__first) o7))

;; "to_rep'result'unused"
(define-fun to_repqtresultqtunused6 () Int
  o7)

;; "Ensures"
(assert (in_range1 o7))

;; "range_check_'result'unused"
(define-fun range_check_qtresultqtunused2 () Int
  o7)

(declare-const ci Int)

;; "ci'unused"
(define-fun ciqtunused () int__ref
  (int__refqtmk ci))

;; "H"
(assert (= ci o7))

;; "Assume"
(assert (in_range1 ci))

;; "o"
(define-fun o8 () Int
  (first m))

;; "first'result'unused"
(define-fun firstqtresultqtunused () Int
  o8)

;; Goal "def'vc"
;; File "sparknacl-core.ads", line 83, characters 0-0
(assert
  (not (<= 0 o8)))

(check-sat)
